(set-logic ALL)
(declare-const k Int)
(declare-fun s () (_ BitVec k))
(declare-fun t () (_ BitVec k))
(assert (distinct (= s (bvudiv s (bvshl (_ bv1 k) s))) (= s (bvnot (bvudiv (_ bvk k) s)))))
(check-sat)
